qbf_easy_train/easy_5352_SAT.qdimacs
p cnf 19 44
a 8 10 5 0
e 1 2 3 4 6 7 9 11 12 13 14 15 16 17 18 19 0
-3 -1 0
-3 -2 0
1 2 3 0
-5 3 0
-5 4 0
-3 -4 5 0
6 1 -7 0
-6 -1 -7 0
6 -1 7 0
-6 1 7 0
5 -7 -8 0
-5 7 -8 0
5 7 8 0
-5 -7 8 0
10 -2 0
10 -9 0
2 9 -10 0
10 11 -12 0
-10 -11 -12 0
10 -11 12 0
-10 11 12 0
14 13 0
14 3 0
-13 -3 -14 0
-15 12 0
-15 14 0
-12 -14 15 0
16 1 -17 0
-16 -1 -17 0
16 -1 17 0
-16 1 17 0
-15 17 -18 0
15 -17 -18 0
-15 -17 18 0
15 17 18 0
-8 18 -19 0
8 -18 -19 0
-8 -18 19 0
8 18 19 0
10 6 -1 17 13 0
-2 13 8 10 -14 0
-4 -13 -2 5 1 -7 0
-5 -8 -7 -16 0
19 0
