sat_easy_train/easy_5352_SAT.dimacs
p cnf 102 332
-4 2 0
-4 -3 0
-2 3 4 0
4 2 -5 0
-4 -2 -5 0
4 -2 5 0
-4 2 5 0
1 -5 -6 0
-1 5 -6 0
1 5 6 0
-1 -5 6 0
-6 7 -8 0
6 -7 -8 0
-6 -7 8 0
6 7 8 0
9 -2 -10 0
-9 2 -10 0
9 2 10 0
-9 -2 10 0
8 -10 -11 0
-8 10 -11 0
8 10 11 0
-8 -10 11 0
14 12 0
14 -13 0
-12 13 -14 0
-15 14 0
-15 -7 0
-14 7 15 0
16 11 0
16 15 0
-11 -15 -16 0
16 17 -18 0
-16 -17 -18 0
16 -17 18 0
-16 17 18 0
-19 -18 0
-19 -6 0
18 6 19 0
-22 21 0
-22 7 0
-21 -7 22 0
23 -20 0
23 22 0
20 -22 -23 0
2 23 -24 0
-2 -23 -24 0
2 -23 24 0
-2 23 24 0
-19 -24 -25 0
19 24 -25 0
-19 24 25 0
19 -24 25 0
-26 3 0
-26 9 0
-3 -9 26 0
-26 21 -27 0
26 -21 -27 0
-26 -21 27 0
26 21 27 0
28 23 0
28 27 0
-23 -27 -28 0
-31 30 0
-31 -21 0
-30 21 31 0
32 29 0
32 31 0
-29 -31 -32 0
33 -32 0
33 -3 0
32 3 -33 0
34 9 0
34 -33 0
-9 33 -34 0
-37 -36 0
-37 5 0
36 -5 37 0
38 -6 0
38 37 0
6 -37 -38 0
39 -35 0
39 -38 0
35 38 -39 0
-40 34 0
-40 -39 0
-34 39 40 0
-41 -28 0
-41 -40 0
28 40 41 0
42 -31 0
42 -8 0
31 8 -42 0
43 16 0
43 -33 0
-16 33 -43 0
-45 43 0
-45 44 0
-43 -44 45 0
-1 -14 -46 0
1 14 -46 0
-1 14 46 0
1 -14 46 0
-47 -22 0
-47 46 0
22 -46 47 0
48 -45 0
48 -47 0
45 47 -48 0
49 -42 0
49 48 0
42 -48 -49 0
29 -50 0
-29 -50 0
51 2 0
51 -18 0
-2 18 -51 0
52 50 0
52 51 0
-50 -51 -52 0
-53 -5 0
-53 -12 0
5 12 53 0
-54 -32 0
-54 -53 0
32 53 54 0
54 20 -55 0
-54 -20 -55 0
54 -20 55 0
-54 20 55 0
-21 55 -56 0
21 -55 -56 0
-21 -55 56 0
21 55 56 0
46 2 -57 0
-46 -2 -57 0
46 -2 57 0
-46 2 57 0
5 57 -58 0
-5 -57 -58 0
5 -57 58 0
-5 57 58 0
59 -56 0
59 -58 0
56 58 -59 0
52 -59 -60 0
-52 59 -60 0
52 59 60 0
-52 -59 60 0
-61 49 0
-61 -60 0
-49 60 61 0
-13 35 -62 0
13 -35 -62 0
-13 -35 62 0
13 35 62 0
-7 -13 -63 0
7 13 -63 0
-7 13 63 0
7 -13 63 0
-64 -63 0
-64 -26 0
63 26 64 0
27 10 -65 0
-27 -10 -65 0
27 -10 65 0
-27 10 65 0
66 65 0
66 32 0
-65 -32 -66 0
67 -64 0
67 66 0
64 -66 -67 0
68 -67 0
68 -13 0
67 13 -68 0
-26 65 -69 0
26 -65 -69 0
-26 -65 69 0
26 65 69 0
70 68 0
70 69 0
-68 -69 -70 0
-62 70 -71 0
62 -70 -71 0
-62 -70 71 0
62 70 71 0
72 61 0
72 -71 0
-61 71 -72 0
41 -72 -73 0
-41 72 -73 0
41 72 73 0
-41 -72 73 0
25 -73 -74 0
-25 73 -74 0
25 73 74 0
-25 -73 74 0
-65 -15 -75 0
65 15 -75 0
-65 15 75 0
65 -15 75 0
-75 35 -76 0
75 -35 -76 0
-75 -35 76 0
75 35 76 0
78 8 0
78 -77 0
-8 77 -78 0
79 -78 0
79 -18 0
78 18 -79 0
80 -76 0
80 -79 0
76 79 -80 0
-7 15 -81 0
7 -15 -81 0
-7 -15 81 0
7 15 81 0
-82 7 0
-82 4 0
-7 -4 82 0
83 65 0
83 7 0
-65 -7 -83 0
-82 83 -84 0
82 -83 -84 0
-82 -83 84 0
82 83 84 0
-85 81 0
-85 -84 0
-81 84 85 0
86 -13 0
86 7 0
13 -7 -86 0
-36 -26 -87 0
36 26 -87 0
-36 26 87 0
36 -26 87 0
87 26 -88 0
-87 -26 -88 0
87 -26 88 0
-87 26 88 0
-89 88 0
-89 -87 0
-88 87 89 0
-90 86 0
-90 89 0
-86 -89 90 0
-91 -85 0
-91 90 0
85 -90 91 0
-10 -20 -92 0
10 20 -92 0
-10 20 92 0
10 -20 92 0
93 -9 0
93 -30 0
9 30 -93 0
-94 -78 0
-94 7 0
78 -7 94 0
-95 -30 0
-95 94 0
30 -94 95 0
-96 93 0
-96 95 0
-93 -95 96 0
97 -92 0
97 96 0
92 -96 -97 0
91 97 -98 0
-91 -97 -98 0
91 -97 98 0
-91 97 98 0
-99 -37 0
-99 35 0
37 -35 99 0
-100 98 0
-100 -99 0
-98 99 100 0
101 -80 0
101 -100 0
80 100 -101 0
-74 101 -102 0
74 -101 -102 0
-74 -101 102 0
74 101 102 0
-93 15 -18 3 45 17 0
39 -94 0
-53 95 -22 -1 -96 0
-70 83 80 -71 -42 40 0
40 32 56 26 0
89 49 70 16 52 69 0
18 -93 -97 -87 46 -2 0
-7 38 0
6 43 0
32 47 0
52 90 -99 0
86 65 67 48 0
72 -2 -16 -23 -28 0
-43 88 87 -63 -15 -58 0
89 -75 -55 0
35 47 102 0
8 -30 -86 73 0
-19 6 0
27 83 0
59 -49 0
20 1 -67 70 -84 -99 0
63 39 26 12 0
-92 -31 71 57 39 0
65 -62 0
-7 -46 -47 -85 -74 0
33 34 -81 -12 66 0
87 16 98 48 24 -12 0
38 24 0
-37 -38 -93 0
-35 49 -47 -48 -16 -34 0
76 -56 -54 0
73 -96 -16 48 0
-63 -16 -77 0
-1 -94 11 -67 39 0
-26 5 55 -67 63 0
-101 -67 0
62 53 96 -36 0
95 1 0
-10 -17 67 0
82 -26 0
6 94 0
-99 91 87 34 0
23 56 -13 0
102 0
